
******************************************************************************
This program contains Ipopt, a library for large-scale nonlinear optimization.
 Ipopt is released as open source code under the Eclipse Public License (EPL).
         For more information visit http://projects.coin-or.org/Ipopt

This version of Ipopt was compiled from source code available at
    https://github.com/IDAES/Ipopt as part of the Institute for the Design of
    Advanced Energy Systems Process Systems Engineering Framework (IDAES PSE
    Framework) Copyright (c) 2018-2019. See https://github.com/IDAES/idaes-pse.

This version of Ipopt was compiled using HSL, a collection of Fortran codes
    for large-scale scientific computation.  All technical papers, sales and
    publicity material resulting from use of the HSL codes within IPOPT must
    contain the following acknowledgement:
        HSL, a collection of Fortran codes for large-scale scientific
        computation. See http://www.hsl.rl.ac.uk.
******************************************************************************

This is Ipopt version 3.13.2, running with linear solver ma27.

Number of nonzeros in equality constraint Jacobian...:     1210
Number of nonzeros in inequality constraint Jacobian.:        0
Number of nonzeros in Lagrangian Hessian.............:     1376

Total number of variables............................:      480
                     variables with only lower bounds:      128
                variables with lower and upper bounds:      288
                     variables with only upper bounds:        0
Total number of equality constraints.................:      477
Total number of inequality constraints...............:        0
        inequality constraints with only lower bounds:        0
   inequality constraints with lower and upper bounds:        0
        inequality constraints with only upper bounds:        0

iter    objective    inf_pr   inf_du lg(mu)  ||d||  lg(rg) alpha_du alpha_pr  ls
   0  0.0000000e+00 1.78e+00 1.42e-14  -1.0 0.00e+00    -  0.00e+00 0.00e+00   0
   1  1.1379609e+00 1.65e+00 1.02e+05  -1.0 2.58e+06    -  5.31e-02 3.22e-02f  4
   2  1.2909408e+00 1.65e+00 1.03e+05  -1.0 2.89e+06    -  5.09e-02 2.03e-03h  8
   3  6.2106791e+01 1.08e+00 4.91e+06  -1.0 3.36e+06    -  4.57e-02 1.60e-01h  2
   4  2.7635496e+02 1.48e+00 4.21e+06  -1.0 1.26e+07    -  5.23e-02 9.98e-02h  2
   5  7.0761945e+02 1.61e+00 5.83e+06  -1.0 2.86e+07    -  9.43e-02 6.39e-02h  2
   6  1.2499256e+03 1.58e+00 6.37e+06  -1.0 5.51e+07    -  9.72e-02 2.84e-02h  1
   7  1.2577952e+03 1.58e+00 6.37e+06  -1.0 6.88e+07    -  1.21e-01 2.99e-04h  1
   8  1.6415781e+03 1.58e+00 6.47e+06  -1.0 8.53e+07    -  1.57e-01 1.14e-02h  2
   9  1.7575350e+03 1.57e+00 6.46e+06  -1.0 1.15e+08    -  8.84e-02 2.32e-03h  7
iter    objective    inf_pr   inf_du lg(mu)  ||d||  lg(rg) alpha_du alpha_pr  ls
  10  2.8875971e+03 1.59e+00 7.04e+06  -1.0 1.27e+08    -  1.08e-01 1.71e-02h  4
  11  5.3482069e+03 1.62e+00 1.75e+07  -1.0 1.81e+08    -  6.81e-02 1.99e-02h  4
  12  1.2075944e+04 1.67e+00 5.44e+07  -1.0 3.20e+08    -  4.86e-01 2.11e-02h  3
  13  2.3926697e+04 1.70e+00 1.36e+08  -1.0 8.90e+08    -  2.15e-02 9.18e-03h  4
  14  3.0595362e+04 1.70e+00 1.45e+08  -1.0 1.13e+09    -  2.91e-01 3.29e-03h  4
  15  4.2047629e+04 1.70e+00 3.62e+08  -1.0 3.56e+09    -  8.94e-03 1.53e-03h  5
  16  3.2357796e+04 1.70e+00 4.98e+08  -1.0 2.18e+09    -  5.77e-01 2.07e-03f  4
  17  4.6540391e+04 1.71e+00 3.95e+09  -1.0 5.10e+09    -  6.23e-03 1.27e-03h  5
  18  5.0015948e+02 4.76e+00 4.04e+11  -1.0 4.18e+09    -  3.40e-01 9.11e-03w  1
  19  1.0192291e+03 4.71e+00 3.62e+11  -1.0 1.56e+07    -  1.54e-01 9.97e-02w  1
iter    objective    inf_pr   inf_du lg(mu)  ||d||  lg(rg) alpha_du alpha_pr  ls
  20  5.2858213e+02 4.61e+00 3.54e+11  -1.0 8.31e+07    -  6.94e-01 2.26e-02w  1
  21  1.2199490e+04 1.79e+00 7.16e+10  -1.0 2.52e+07    -  3.40e-01 4.56e-03f  1
  22  1.5925728e+04 1.79e+00 6.93e+10  -1.0 6.32e+08    -  3.27e-02 4.58e-03h  4
  23  1.7849160e+04 1.78e+00 7.25e+10  -1.0 4.22e+08    -  4.42e-01 3.26e-03h  4
  24  1.8717270e+04 1.78e+00 7.78e+10  -1.0 2.06e+08    -  1.33e-01 2.94e-03h  4
  25  1.9061079e+04 1.77e+00 8.40e+10  -1.0 8.65e+07    -  6.85e-01 2.87e-03h  4
  26  1.9176934e+04 1.77e+00 9.08e+10  -1.0 6.08e+07    -  9.58e-01 2.86e-03h  4
  27  1.9011426e+04 1.76e+00 9.75e+10  -1.0 5.60e+07    -  9.84e-01 2.87e-03f  4
  28  1.8213120e+04 1.75e+00 1.21e+11  -1.0 8.75e+07    -  9.81e-01 5.79e-03f  3
  29  1.7594214e+04 1.75e+00 1.26e+11  -1.0 1.38e+08    -  5.55e-01 2.97e-03f  4
iter    objective    inf_pr   inf_du lg(mu)  ||d||  lg(rg) alpha_du alpha_pr  ls
  30  1.6311341e+04 1.74e+00 1.41e+11  -1.0 1.46e+08    -  9.87e-01 6.03e-03f  3
  31  1.5657104e+04 1.73e+00 1.43e+11  -1.0 1.49e+08    -  4.05e-01 3.11e-03f  4
  32  1.0956123e+04 3.01e+00 2.48e+11  -1.0 1.47e+08    -  7.47e-01 2.52e-02f  1
  33  1.0893613e+04 3.01e+00 2.48e+11  -1.0 2.10e+08    -  5.36e-01 2.58e-04f  1
  34  9.7948662e+03 2.98e+00 2.82e+11  -1.0 5.47e+08    -  9.38e-01 1.79e-03f  1
  35  9.6888257e+03 1.45e+01 1.29e+21  -1.0 2.08e+08    -  3.42e-01 4.69e-04f  1
Scaling factors are invalid - setting them all to 1.
Scaling factors are invalid - setting them all to 1.
Scaling factors are invalid - setting them all to 1.
Scaling factors are invalid - setting them all to 1.
Scaling factors are invalid - setting them all to 1.
Scaling factors are invalid - setting them all to 1.
Scaling factors are invalid - setting them all to 1.
Scaling factors are invalid - setting them all to 1.
Scaling factors are invalid - setting them all to 1.
Scaling factors are invalid - setting them all to 1.
Scaling factors are invalid - setting them all to 1.
Scaling factors are invalid - setting them all to 1.
Scaling factors are invalid - setting them all to 1.
Scaling factors are invalid - setting them all to 1.
  36  9.6888257e+03 1.07e+01 1.19e+21  -1.0 4.10e-09  19.8 9.90e-01 1.00e+00h  1
Scaling factors are invalid - setting them all to 1.
Scaling factors are invalid - setting them all to 1.
MA27BD returned iflag=-4 and requires more memory.
 Increase liw from 19240 to 38480 and la from 22500 to 45874 and factorize again.
Scaling factors are invalid - setting them all to 1.
Scaling factors are invalid - setting them all to 1.
  37  9.6888257e+03 1.07e+01 1.10e+21  -1.0 3.69e-08  18.9 9.90e-01 9.90e-01s 22
Scaling factors are invalid - setting them all to 1.
Scaling factors are invalid - setting them all to 1.
Scaling factors are invalid - setting them all to 1.
Scaling factors are invalid - setting them all to 1.
Scaling factors are invalid - setting them all to 1.
Scaling factors are invalid - setting them all to 1.
  38  9.6888257e+03 1.07e+01 9.84e+20  -1.0 5.20e-09  19.7 9.90e-01 9.90e-01s 22
Scaling factors are invalid - setting them all to 1.
Scaling factors are invalid - setting them all to 1.
Scaling factors are invalid - setting them all to 1.
Scaling factors are invalid - setting them all to 1.
Scaling factors are invalid - setting them all to 1.
  39  9.6888257e+03 1.07e+01 8.46e+20  -1.0 8.96e-09  19.7 9.90e-01 9.90e-01s 22
Scaling factors are invalid - setting them all to 1.
Scaling factors are invalid - setting them all to 1.
iter    objective    inf_pr   inf_du lg(mu)  ||d||  lg(rg) alpha_du alpha_pr  ls
  40  9.6888257e+03 1.07e+01 2.06e+20  -1.0 2.46e+06  19.2 1.50e-09 1.50e-09s 22
Scaling factors are invalid - setting them all to 1.
Scaling factors are invalid - setting them all to 1.
Scaling factors are invalid - setting them all to 1.
Scaling factors are invalid - setting them all to 1.
Scaling factors are invalid - setting them all to 1.
WARNING: Problem in step computation; switching to emergency mode.
  41r 9.6888257e+03 1.07e+01 1.00e+03   1.0 0.00e+00  19.2 0.00e+00 0.00e+00R  1
  42r 9.6888260e+03 1.40e+01 9.97e+02   1.0 1.07e+04    -  6.81e-02 9.90e-04f  1
  43r 9.6888275e+03 1.05e+01 2.00e+11   1.0 2.45e+02    -  1.15e-03 7.72e-03f  1
WARNING: Problem in step computation; switching to emergency mode.
  44r 9.6888275e+03 1.05e+01 2.00e+11   1.0 2.45e+02  19.8 0.00e+00 0.00e+00R  1
WARNING: Problem in step computation; switching to emergency mode.
Restoration phase is called at point that is almost feasible,
  with constraint violation 0.000000e+00. Abort.
Restoration phase in the restoration phase failed.

Number of Iterations....: 44

                                   (scaled)                 (unscaled)
Objective...............:   9.6888274911226181e+03    9.6888274911226181e+03
Dual infeasibility......:   1.9968650031622882e+11    1.9968650031622882e+11
Constraint violation....:   1.0536308647968999e+01    1.0536308647968999e+01
Complementarity.........:   1.0053242932402478e+01    1.0053242932402478e+01
Overall NLP error.......:   1.9968650031622882e+11    1.9968650031622882e+11


Number of objective function evaluations             = 170
Number of objective gradient evaluations             = 42
Number of equality constraint evaluations            = 170
Number of inequality constraint evaluations          = 0
Number of equality constraint Jacobian evaluations   = 45
Number of inequality constraint Jacobian evaluations = 0
Number of Lagrangian Hessian evaluations             = 45
Total CPU secs in IPOPT (w/o function evaluations)   =      0.356
Total CPU secs in NLP function evaluations           =      2.008

EXIT: Restoration Failed!
